(declare-fun temp7357_1 () (_ BitVec 64))
(declare-fun var461682 () (_ BitVec 64))
(declare-fun var461681 () (_ BitVec 64))
(declare-fun var134653 () (_ BitVec 64))
(declare-fun var528535 () (_ BitVec 64))
(declare-fun var594392 () (_ BitVec 64))
(declare-fun temp7357_2 () (_ BitVec 64))
(declare-fun var2559573 () (_ BitVec 64))
(declare-fun var2559578 () (_ BitVec 64))
(declare-fun temp7357_3 () (_ BitVec 64))
(declare-fun var2756181 () (_ BitVec 64))
(declare-fun var2756186 () (_ BitVec 64))
(declare-fun temp7357_5 () (_ BitVec 64))
(declare-fun temp7357_4 () (_ BitVec 64))
(declare-fun temp7357_7 () (_ BitVec 64))
(declare-fun temp7357_6 () (_ BitVec 64))
(declare-fun temp7357_9 () (_ BitVec 64))
(declare-fun temp7357_8 () (_ BitVec 64))
(declare-fun temp7357_11 () (_ BitVec 64))
(declare-fun temp7357_10 () (_ BitVec 64))
(declare-fun temp7357_13 () (_ BitVec 64))
(declare-fun temp7357_12 () (_ BitVec 64))
(declare-fun temp7357_15 () (_ BitVec 64))
(declare-fun temp7357_14 () (_ BitVec 64))
(declare-fun temp7357_17 () (_ BitVec 64))
(declare-fun temp7357_16 () (_ BitVec 64))
(declare-fun temp7357_19 () (_ BitVec 64))
(declare-fun temp7357_18 () (_ BitVec 64))
(declare-fun temp7357_21 () (_ BitVec 64))
(declare-fun temp7357_20 () (_ BitVec 64))
(declare-fun temp7357_23 () (_ BitVec 64))
(declare-fun temp7357_22 () (_ BitVec 64))
(declare-fun temp7357_25 () (_ BitVec 64))
(declare-fun temp7357_24 () (_ BitVec 64))
(declare-fun temp7357_27 () (_ BitVec 64))
(declare-fun temp7357_26 () (_ BitVec 64))
(declare-fun temp7357_29 () (_ BitVec 64))
(declare-fun temp7357_28 () (_ BitVec 64))
(declare-fun temp7357_31 () (_ BitVec 64))
(declare-fun temp7357_30 () (_ BitVec 64))
(declare-fun temp7357_33 () (_ BitVec 64))
(declare-fun temp7357_32 () (_ BitVec 64))
(declare-fun temp7357_35 () (_ BitVec 64))
(declare-fun temp7357_34 () (_ BitVec 64))
(declare-fun temp7357_37 () (_ BitVec 64))
(declare-fun temp7357_36 () (_ BitVec 64))
(declare-fun temp7357_39 () (_ BitVec 64))
(declare-fun temp7357_38 () (_ BitVec 64))
(declare-fun temp7357_41 () (_ BitVec 64))
(declare-fun temp7357_40 () (_ BitVec 64))
(declare-fun temp7357_43 () (_ BitVec 64))
(declare-fun temp7357_42 () (_ BitVec 64))
(declare-fun temp7357_45 () (_ BitVec 64))
(declare-fun temp7357_44 () (_ BitVec 64))
(declare-fun temp7357_47 () (_ BitVec 64))
(declare-fun temp7357_46 () (_ BitVec 64))
(declare-fun temp7357_49 () (_ BitVec 64))
(declare-fun temp7357_48 () (_ BitVec 64))
(declare-fun temp7357_51 () (_ BitVec 64))
(declare-fun temp7357_50 () (_ BitVec 64))
(declare-fun temp7357_53 () (_ BitVec 64))
(declare-fun temp7357_52 () (_ BitVec 64))
(declare-fun temp7357_55 () (_ BitVec 64))
(declare-fun temp7357_54 () (_ BitVec 64))
(declare-fun temp7357_57 () (_ BitVec 64))
(declare-fun temp7357_56 () (_ BitVec 64))
(declare-fun temp7357_58 () (_ BitVec 64))
(declare-fun var3870293 () (_ BitVec 64))
(declare-fun var3870298 () (_ BitVec 64))
(assert (= temp7357_1 #x0000000000000007))
(assert (= var461682 temp7357_1))
(assert (= var461681 var461682))
(assert (= var134653 var461681))
(assert (= var528535 var134653))
(assert (= var594392 var528535))
(assert (= temp7357_2 #x0000000000000000))
(assert (= var2559573 temp7357_2))
(assert (= var2559578 var2559573))
(assert (= temp7357_3 #x0000000000000000))
(assert (= var2756181 temp7357_3))
(assert (= var2756186 var2756181))
(assert (= temp7357_5 #x0000000000000000))
(assert (= temp7357_4 temp7357_5))
(assert (= temp7357_7 #x0000000000000000))
(assert (= temp7357_6 temp7357_7))
(assert (= temp7357_9 #x0000000000000000))
(assert (= temp7357_8 temp7357_9))
(assert (= temp7357_11 #x0000000000000000))
(assert (= temp7357_10 temp7357_11))
(assert (= temp7357_13 #x0000000000000000))
(assert (= temp7357_12 temp7357_13))
(assert (= temp7357_15 #x0000000000000000))
(assert (= temp7357_14 temp7357_15))
(assert (= temp7357_17 #x0000000000000000))
(assert (= temp7357_16 temp7357_17))
(assert (= temp7357_19 #x0000000000000000))
(assert (= temp7357_18 temp7357_19))
(assert (= temp7357_21 #x0000000000000000))
(assert (= temp7357_20 temp7357_21))
(assert (= temp7357_23 #x0000000000000000))
(assert (= temp7357_22 temp7357_23))
(assert (= temp7357_25 #x0000000000000000))
(assert (= temp7357_24 temp7357_25))
(assert (= temp7357_27 #x0000000000000000))
(assert (= temp7357_26 temp7357_27))
(assert (= temp7357_29 #x0000000000000000))
(assert (= temp7357_28 temp7357_29))
(assert (= temp7357_31 #x0000000000000000))
(assert (= temp7357_30 temp7357_31))
(assert (= temp7357_33 #x0000000000000000))
(assert (= temp7357_32 temp7357_33))
(assert (= temp7357_35 #x0000000000000000))
(assert (= temp7357_34 temp7357_35))
(assert (= temp7357_37 #x0000000000000000))
(assert (= temp7357_36 temp7357_37))
(assert (= temp7357_39 #x0000000000000000))
(assert (= temp7357_38 temp7357_39))
(assert (= temp7357_41 #x0000000000000000))
(assert (= temp7357_40 temp7357_41))
(assert (= temp7357_43 #x0000000000000000))
(assert (= temp7357_42 temp7357_43))
(assert (= temp7357_45 #x0000000000000000))
(assert (= temp7357_44 temp7357_45))
(assert (= temp7357_47 #x0000000000000000))
(assert (= temp7357_46 temp7357_47))
(assert (= temp7357_49 #x0000000000000000))
(assert (= temp7357_48 temp7357_49))
(assert (= temp7357_51 #x0000000000000000))
(assert (= temp7357_50 temp7357_51))
(assert (= temp7357_53 #x0000000000000000))
(assert (= temp7357_52 temp7357_53))
(assert (= temp7357_55 #x0000000000000000))
(assert (= temp7357_54 temp7357_55))
(assert (= temp7357_57 #x0000000000000000))
(assert (= temp7357_56 temp7357_57))
(assert (= temp7357_58 #x0000000000000000))
(assert (= var3870293 temp7357_58))
(assert (= var3870298 var3870293))
(model-add temp7357_1 () (_ BitVec 64) #x0000000000000007)
(model-add var461682 () (_ BitVec 64) #x0000000000000007)
(model-add var461681 () (_ BitVec 64) #x0000000000000007)
(model-add var134653 () (_ BitVec 64) #x0000000000000007)
(model-add var528535 () (_ BitVec 64) #x0000000000000007)
(model-add var594392 () (_ BitVec 64) #x0000000000000007)
(model-add temp7357_2 () (_ BitVec 64) #x0000000000000000)
(model-add var2559573 () (_ BitVec 64) #x0000000000000000)
(model-add var2559578 () (_ BitVec 64) #x0000000000000000)
(model-add temp7357_3 () (_ BitVec 64) #x0000000000000000)
(model-add var2756181 () (_ BitVec 64) #x0000000000000000)
(model-add var2756186 () (_ BitVec 64) #x0000000000000000)
(model-add temp7357_5 () (_ BitVec 64) #x0000000000000000)
(model-add temp7357_4 () (_ BitVec 64) #x0000000000000000)
(model-add temp7357_7 () (_ BitVec 64) #x0000000000000000)
(model-add temp7357_6 () (_ BitVec 64) #x0000000000000000)
(model-add temp7357_9 () (_ BitVec 64) #x0000000000000000)
(model-add temp7357_8 () (_ BitVec 64) #x0000000000000000)
(model-add temp7357_11 () (_ BitVec 64) #x0000000000000000)
(model-add temp7357_10 () (_ BitVec 64) #x0000000000000000)
(model-add temp7357_13 () (_ BitVec 64) #x0000000000000000)
(model-add temp7357_12 () (_ BitVec 64) #x0000000000000000)
(model-add temp7357_15 () (_ BitVec 64) #x0000000000000000)
(model-add temp7357_14 () (_ BitVec 64) #x0000000000000000)
(model-add temp7357_17 () (_ BitVec 64) #x0000000000000000)
(model-add temp7357_16 () (_ BitVec 64) #x0000000000000000)
(model-add temp7357_19 () (_ BitVec 64) #x0000000000000000)
(model-add temp7357_18 () (_ BitVec 64) #x0000000000000000)
(model-add temp7357_21 () (_ BitVec 64) #x0000000000000000)
(model-add temp7357_20 () (_ BitVec 64) #x0000000000000000)
(model-add temp7357_23 () (_ BitVec 64) #x0000000000000000)
(model-add temp7357_22 () (_ BitVec 64) #x0000000000000000)
(model-add temp7357_25 () (_ BitVec 64) #x0000000000000000)
(model-add temp7357_24 () (_ BitVec 64) #x0000000000000000)
(model-add temp7357_27 () (_ BitVec 64) #x0000000000000000)
(model-add temp7357_26 () (_ BitVec 64) #x0000000000000000)
(model-add temp7357_29 () (_ BitVec 64) #x0000000000000000)
(model-add temp7357_28 () (_ BitVec 64) #x0000000000000000)
(model-add temp7357_31 () (_ BitVec 64) #x0000000000000000)
(model-add temp7357_30 () (_ BitVec 64) #x0000000000000000)
(model-add temp7357_33 () (_ BitVec 64) #x0000000000000000)
(model-add temp7357_32 () (_ BitVec 64) #x0000000000000000)
(model-add temp7357_35 () (_ BitVec 64) #x0000000000000000)
(model-add temp7357_34 () (_ BitVec 64) #x0000000000000000)
(model-add temp7357_37 () (_ BitVec 64) #x0000000000000000)
(model-add temp7357_36 () (_ BitVec 64) #x0000000000000000)
(model-add temp7357_39 () (_ BitVec 64) #x0000000000000000)
(model-add temp7357_38 () (_ BitVec 64) #x0000000000000000)
(model-add temp7357_41 () (_ BitVec 64) #x0000000000000000)
(model-add temp7357_40 () (_ BitVec 64) #x0000000000000000)
(model-add temp7357_43 () (_ BitVec 64) #x0000000000000000)
(model-add temp7357_42 () (_ BitVec 64) #x0000000000000000)
(model-add temp7357_45 () (_ BitVec 64) #x0000000000000000)
(model-add temp7357_44 () (_ BitVec 64) #x0000000000000000)
(model-add temp7357_47 () (_ BitVec 64) #x0000000000000000)
(model-add temp7357_46 () (_ BitVec 64) #x0000000000000000)
(model-add temp7357_49 () (_ BitVec 64) #x0000000000000000)
(model-add temp7357_48 () (_ BitVec 64) #x0000000000000000)
(model-add temp7357_51 () (_ BitVec 64) #x0000000000000000)
(model-add temp7357_50 () (_ BitVec 64) #x0000000000000000)
(model-add temp7357_53 () (_ BitVec 64) #x0000000000000000)
(model-add temp7357_52 () (_ BitVec 64) #x0000000000000000)
(model-add temp7357_55 () (_ BitVec 64) #x0000000000000000)
(model-add temp7357_54 () (_ BitVec 64) #x0000000000000000)
(model-add temp7357_57 () (_ BitVec 64) #x0000000000000000)
(model-add temp7357_56 () (_ BitVec 64) #x0000000000000000)
(model-add temp7357_58 () (_ BitVec 64) #x0000000000000000)
(model-add var3870293 () (_ BitVec 64) #x0000000000000000)
(model-add var3870298 () (_ BitVec 64) #x0000000000000000)






